c WARNING: for repeatability, setting FPU to use double precision
d VARIABLES            128026       
d CONSTRAINTS          464924       
c ============================[ Problem Statistics ]=============================
c |                                                                             |
c |  Number of variables:        128026                                         |
c |  Number of clauses:          464924                                         |
c |  Parse time:                   0.07 s                                       |
c |                                                                             |
c ============================[ Search Statistics ]==============================
c | Conflicts |          ORIGINAL         |          LEARNT          | Progress |
c |           |    Vars  Clauses Literals |    Limit  Clauses Lit/Cl |          |
c ===============================================================================
c |       100 |  101460   397478   998419 |   145741      100     11 | 20.750 % |
c |       250 |  101460   397478   998419 |   160316      250      9 | 20.750 % |
c |       475 |  101460   397478   998419 |   176347      475      7 | 20.750 % |
c |       812 |  101460   397478   998419 |   193982      812      7 | 20.750 % |
c |      1318 |  101460   397478   998419 |   213380     1318     10 | 20.750 % |
c |      2077 |  101460   397478   998419 |   234718     2077     10 | 20.750 % |
c |      3216 |  101459   397467   998393 |   258190     3214     14 | 20.751 % |
c |      4924 |  101458   397457   998370 |   284009     4921     15 | 20.752 % |
c |      7486 |  101177   397446   998344 |   312410     7477     17 | 20.972 % |
c ===============================================================================
c restarts              : 31
c conflicts             : 7565           (7004 /sec)
c decisions             : 58572          (0.00 % random) (54230 /sec)
c propagations          : 8783832        (8132673 /sec)
c conflict literals     : 125553         (20.75 % deleted)
d RESTARTS             31
d FAILURES             7565         
d NODES                58572        
d BACKTRACKS           58572        
d PROPAGATIONS         8783832      
d NOGOODSIZE           16.60 
d MEMORY               36.00 
d TIME                 1.08007 

s UNSATISFIABLE
